NAME: instance_2962
TYPE: TSP
DIMENSION: 20
EDGE_WEIGHT_TYPE: EUC_2D
NODE_COORD_SECTION
0 57.15 58.71
1 20.41 62.13
2 5.36 1.01
3 8.12 55.12
4 68.96 94.59
5 43.54 32.04
6 90.55 39.04
7 80.98 76.66
8 17.16 75.40
9 47.69 18.13
10 70.09 6.81
11 49.95 63.60
12 40.94 84.83
13 67.94 11.97
14 91.12 92.99
15 77.24 41.65
16 12.79 36.44
17 79.69 71.95
18 43.46 74.51
19 63.50 68.37
EOF
